94 34 32 30 31 29 27 26 28 33 
69 60 79 73 78 88 55 
80 92 62 50 67 71 93 96 
90 59 87 97 75 58 77 
66 83 24 21 23 25 22 20 
14 47 17 16 15 13 10 82 
99 52 86 74 57 65 
41 39 38 43 1 3 5 45 100 
61 42 44 40 36 35 37 72 54 81 
6 7 8 46 4 2 70 68 
12 11 9 53 98 
91 95 84 56 
49 19 48 18 76 89 63 85 51 64 
